Minimize
        3x11+x12+100x13+4x21+2x22+4x23+100x31+3x32+3x33
st
        x11+x12+x13 <= 5
        x21+x22+x23 <= 7
        x31+x32+x33 <= 3
        x11+x21+x31 >= 7
        x12+x22+x32 >= 3
        x13+x23+x33 >= 5
Bounds
        0 <= x11
        0 <= x12
        0 <= x13
        0 <= x21
        0 <= x22
        0 <= x23
        0 <= x31
        0 <= x32
        0 <= x33
end
